c Random 3-CNF over 20 variables and 100 clauses
c Generated with `cnfgen`
c (C) 2012-2016 Massimo Lauria <lauria.massimo@gmail.com>
c https://massimolauria.github.io/cnfgen
c
c COMMAND LINE: cnfgen --output tmp-3-20-100.dimacs --output-format dimacs randkcnf 3 20 100
c
c sdimacs generated by gen-sdimacs
c
p cnf 20 100
r 0.5 1 2 3 4 5 6 7 8 9 10 0
e  11 12 13 14 15 16 17 18 19 20 0
3 -13 17 0
-4 -17 19 0
-4 -10 -16 0
-1 -5 -16 0
1 -6 -13 0
-7 13 -17 0
4 7 17 0
-5 -7 12 0
-13 16 18 0
1 -7 -9 0
3 13 19 0
10 -14 -15 0
-2 -4 8 0
-2 5 16 0
9 12 -14 0
-1 -9 12 0
-1 -8 12 0
-7 8 -16 0
3 13 -19 0
-1 4 15 0
1 -8 11 0
-6 -10 -20 0
-9 10 -13 0
-5 13 -20 0
4 9 15 0
-9 -10 -19 0
3 9 20 0
4 -12 15 0
2 -4 16 0
-1 9 16 0
2 4 -13 0
-6 -15 20 0
-5 8 -14 0
-2 6 -10 0
1 -5 -6 0
1 -2 6 0
-4 13 -16 0
8 -11 12 0
5 12 18 0
-2 -8 18 0
-4 8 -13 0
10 -12 14 0
5 15 16 0
-4 -9 -15 0
-2 -3 17 0
9 13 -15 0
-4 -5 11 0
2 -13 -14 0
2 17 -20 0
5 -7 -14 0
6 15 -16 0
12 -19 -20 0
11 15 -17 0
13 -15 19 0
4 -11 -14 0
7 10 -13 0
6 -8 9 0
-6 -12 -15 0
-2 -4 -17 0
8 -11 -19 0
-10 -19 -20 0
9 -12 -17 0
8 -16 -18 0
-5 -17 -18 0
-10 13 -19 0
2 -17 -18 0
-1 9 -20 0
-4 -16 20 0
1 4 -18 0
3 -5 19 0
-4 5 9 0
7 17 -20 0
-5 -6 -16 0
-2 -11 -19 0
-5 8 -19 0
-4 12 -17 0
8 16 -20 0
-2 -7 -14 0
2 -7 13 0
3 10 -18 0
-1 -2 14 0
-5 -7 -19 0
6 -7 -14 0
2 5 -11 0
1 5 -7 0
4 -14 19 0
8 -10 -14 0
1 -2 16 0
2 -4 -14 0
-4 8 -11 0
-9 -14 20 0
3 -10 17 0
-7 10 11 0
-15 16 20 0
3 8 -17 0
10 -15 17 0
-9 16 -17 0
-9 -17 18 0
-9 13 14 0
9 -13 19 0
